
ASes= { 1, 2, 3, 4, 5, 6, 7, 8, 9, 10, 11 } ;


Objects= { 1, 2, 3, 4, 5, 6, 7, 8, 9, 10, 11, 12, 13, 14, 15, 16, 17, 18, 19, 20, 21, 22, 23, 24, 25, 26, 27, 28, 29, 30, 31, 32, 33, 34, 35, 36, 37, 38, 39, 40, 41, 42, 43, 44, 45, 46, 47, 48, 49, 50, 51, 52, 53, 54, 55, 56, 57, 58, 59, 60, 61, 62, 63, 64, 65, 66, 67, 68, 69, 70, 71, 72, 73, 74, 75, 76, 77, 78, 79, 80, 81, 82, 83, 84, 85, 86, 87, 88, 89, 90, 91, 92, 93, 94, 95, 96, 97, 98, 99, 100 } ;


QualityLevels= { 0, 1, 2, 3, 4, 5 } ;

Arcs = {<2,1,490000>, <1,2,490000>, <11,1,490000>, <1,11,490000>, <11,2,490000>, <2,11,490000>, <11,10,490000>, <10,11,490000>, <3,2,490000>, <2,3,490000>, <4,3,490000>, <3,4,490000>, <5,4,490000>, <4,5,490000>, <6,5,490000>, <5,6,490000>, <7,6,490000>, <6,7,490000>, <8,4,490000>, <4,8,490000>, <8,7,490000>, <7,8,490000>, <9,3,490000>, <3,9,490000>, <9,8,490000>, <8,9,490000>, <10,9,490000>, <9,10,490000>};


RatePerQuality= [ 0  300  700  1500  2500  3500 ] ;


CacheSpacePerQuality= [ 10000  11.25  26.25  56.25  93.75  131.25 ] ;


UtilityPerQuality= [ 0  0.2  0.4  0.6  0.8  1 ] ;


ObjectsPublishedByProducers=[ [ 0  0  0  0  0  0  0  1  0  0  0 ]  [ 0  0  0  0  0  0  0  1  0  0  0 ]  [ 0  0  0  0  0  0  0  1  0  0  0 ]  [ 0  0  0  0  0  0  0  1  0  0  0 ]  [ 0  0  0  0  0  0  0  1  0  0  0 ]  [ 0  0  0  0  0  0  0  1  0  0  0 ]  [ 0  0  0  0  0  0  0  1  0  0  0 ]  [ 0  0  0  0  0  0  0  1  0  0  0 ]  [ 0  0  0  0  0  0  0  1  0  0  0 ]  [ 0  0  0  0  0  0  0  1  0  0  0 ]  [ 0  0  0  0  0  0  0  1  0  0  0 ]  [ 0  0  0  0  0  0  0  1  0  0  0 ]  [ 0  0  0  0  0  0  0  1  0  0  0 ]  [ 0  0  0  0  0  0  0  1  0  0  0 ]  [ 0  0  0  0  0  0  0  1  0  0  0 ]  [ 0  0  0  0  0  0  0  1  0  0  0 ]  [ 0  0  0  0  0  0  0  1  0  0  0 ]  [ 0  0  0  0  0  0  0  1  0  0  0 ]  [ 0  0  0  0  0  0  0  1  0  0  0 ]  [ 0  0  0  0  0  0  0  1  0  0  0 ]  [ 0  0  0  0  0  0  0  1  0  0  0 ]  [ 0  0  0  0  0  0  0  1  0  0  0 ]  [ 0  0  0  0  0  0  0  1  0  0  0 ]  [ 0  0  0  0  0  0  0  1  0  0  0 ]  [ 0  0  0  0  0  0  0  1  0  0  0 ]  [ 0  0  0  0  0  0  0  1  0  0  0 ]  [ 0  0  0  0  0  0  0  1  0  0  0 ]  [ 0  0  0  0  0  0  0  1  0  0  0 ]  [ 0  0  0  0  0  0  0  1  0  0  0 ]  [ 0  0  0  0  0  0  0  1  0  0  0 ]  [ 0  0  0  0  0  0  0  1  0  0  0 ]  [ 0  0  0  0  0  0  0  1  0  0  0 ]  [ 0  0  0  0  0  0  0  1  0  0  0 ]  [ 0  0  0  0  0  0  0  1  0  0  0 ]  [ 0  0  0  0  0  0  0  1  0  0  0 ]  [ 0  0  0  0  0  0  0  1  0  0  0 ]  [ 0  0  0  0  0  0  0  1  0  0  0 ]  [ 0  0  0  0  0  0  0  1  0  0  0 ]  [ 0  0  0  0  0  0  0  1  0  0  0 ]  [ 0  0  0  0  0  0  0  1  0  0  0 ]  [ 0  0  0  0  0  0  0  1  0  0  0 ]  [ 0  0  0  0  0  0  0  1  0  0  0 ]  [ 0  0  0  0  0  0  0  1  0  0  0 ]  [ 0  0  0  0  0  0  0  1  0  0  0 ]  [ 0  0  0  0  0  0  0  1  0  0  0 ]  [ 0  0  0  0  0  0  0  1  0  0  0 ]  [ 0  0  0  0  0  0  0  1  0  0  0 ]  [ 0  0  0  0  0  0  0  1  0  0  0 ]  [ 0  0  0  0  0  0  0  1  0  0  0 ]  [ 0  0  0  0  0  0  0  1  0  0  0 ]  [ 0  0  0  0  0  0  0  1  0  0  0 ]  [ 0  0  0  0  0  0  0  1  0  0  0 ]  [ 0  0  0  0  0  0  0  1  0  0  0 ]  [ 0  0  0  0  0  0  0  1  0  0  0 ]  [ 0  0  0  0  0  0  0  1  0  0  0 ]  [ 0  0  0  0  0  0  0  1  0  0  0 ]  [ 0  0  0  0  0  0  0  1  0  0  0 ]  [ 0  0  0  0  0  0  0  1  0  0  0 ]  [ 0  0  0  0  0  0  0  1  0  0  0 ]  [ 0  0  0  0  0  0  0  1  0  0  0 ]  [ 0  0  0  0  0  0  0  1  0  0  0 ]  [ 0  0  0  0  0  0  0  1  0  0  0 ]  [ 0  0  0  0  0  0  0  1  0  0  0 ]  [ 0  0  0  0  0  0  0  1  0  0  0 ]  [ 0  0  0  0  0  0  0  1  0  0  0 ]  [ 0  0  0  0  0  0  0  1  0  0  0 ]  [ 0  0  0  0  0  0  0  1  0  0  0 ]  [ 0  0  0  0  0  0  0  1  0  0  0 ]  [ 0  0  0  0  0  0  0  1  0  0  0 ]  [ 0  0  0  0  0  0  0  1  0  0  0 ]  [ 0  0  0  0  0  0  0  1  0  0  0 ]  [ 0  0  0  0  0  0  0  1  0  0  0 ]  [ 0  0  0  0  0  0  0  1  0  0  0 ]  [ 0  0  0  0  0  0  0  1  0  0  0 ]  [ 0  0  0  0  0  0  0  1  0  0  0 ]  [ 0  0  0  0  0  0  0  1  0  0  0 ]  [ 0  0  0  0  0  0  0  1  0  0  0 ]  [ 0  0  0  0  0  0  0  1  0  0  0 ]  [ 0  0  0  0  0  0  0  1  0  0  0 ]  [ 0  0  0  0  0  0  0  1  0  0  0 ]  [ 0  0  0  0  0  0  0  1  0  0  0 ]  [ 0  0  0  0  0  0  0  1  0  0  0 ]  [ 0  0  0  0  0  0  0  1  0  0  0 ]  [ 0  0  0  0  0  0  0  1  0  0  0 ]  [ 0  0  0  0  0  0  0  1  0  0  0 ]  [ 0  0  0  0  0  0  0  1  0  0  0 ]  [ 0  0  0  0  0  0  0  1  0  0  0 ]  [ 0  0  0  0  0  0  0  1  0  0  0 ]  [ 0  0  0  0  0  0  0  1  0  0  0 ]  [ 0  0  0  0  0  0  0  1  0  0  0 ]  [ 0  0  0  0  0  0  0  1  0  0  0 ]  [ 0  0  0  0  0  0  0  1  0  0  0 ]  [ 0  0  0  0  0  0  0  1  0  0  0 ]  [ 0  0  0  0  0  0  0  1  0  0  0 ]  [ 0  0  0  0  0  0  0  1  0  0  0 ]  [ 0  0  0  0  0  0  0  1  0  0  0 ]  [ 0  0  0  0  0  0  0  1  0  0  0 ]  [ 0  0  0  0  0  0  0  1  0  0  0 ]  [ 0  0  0  0  0  0  0  1  0  0  0 ]  [ 0  0  0  0  0  0  0  1  0  0  0 ] ];

ObjRequests = {  <1,5,12>, <2,5,16>, <3,5,241>, <4,5,8>, <5,5,112>, <6,5,129>, <7,5,84>, <8,5,3>, <9,5,45>, <10,5,25>, <11,5,39>, <12,5,56>, <13,5,9>, <14,5,17>, <15,5,37>, <16,5,19>, <17,5,14>, <18,5,18>, <19,5,15>, <20,5,6>, <21,5,10>, <22,5,27>, <23,5,13>, <24,5,9>, <25,5,17>, <26,5,3>, <27,5,15>, <28,5,14>, <29,5,1>, <30,5,5>, <31,5,13>, <32,5,23>, <33,5,2>, <34,5,9>, <35,5,19>, <36,5,19>, <37,5,15>, <38,5,7>, <39,5,6>, <40,5,18>, <41,5,4>, <42,5,15>, <43,5,6>, <44,5,2>, <45,5,16>, <46,5,3>, <47,5,3>, <48,5,10>, <49,5,2>, <50,5,11>, <51,5,5>, <52,5,5>, <53,5,8>, <54,5,6>, <55,5,4>, <56,5,7>, <57,5,6>, <58,5,2>, <59,5,5>, <60,5,3>, <61,5,2>, <62,5,3>, <63,5,1>, <64,5,14>, <65,5,3>, <66,5,13>, <67,5,9>, <68,5,17>, <69,5,11>, <71,5,2>, <72,5,3>, <73,5,3>, <74,5,5>, <77,5,3>, <78,5,1>, <79,5,1>, <80,5,2>, <82,5,12>, <83,5,9>, <84,5,1>, <85,5,2>, <86,5,3>, <87,5,1>, <89,5,3>, <90,5,1>, <91,5,2>, <92,5,7>, <93,5,1>, <94,5,7>, <95,5,2>, <97,5,1>, <98,5,6>, <99,5,8>, <100,5,3>, <1,6,29>, <2,6,60>, <3,6,9>, <4,6,77>, <5,6,77>, <6,6,97>, <7,6,43>, <8,6,16>, <9,6,10>, <10,6,31>, <11,6,37>, <12,6,43>, <13,6,19>, <14,6,2>, <15,6,31>, <16,6,3>, <17,6,7>, <19,6,26>, <20,6,31>, <21,6,4>, <22,6,4>, <23,6,8>, <24,6,35>, <25,6,29>, <27,6,2>, <28,6,16>, <29,6,12>, <30,6,18>, <31,6,12>, <32,6,18>, <33,6,11>, <34,6,3>, <35,6,6>, <36,6,13>, <37,6,30>, <38,6,12>, <39,6,6>, <40,6,7>, <41,6,10>, <42,6,8>, <43,6,9>, <44,6,4>, <45,6,2>, <46,6,5>, <47,6,2>, <48,6,3>, <49,6,5>, <50,6,1>, <51,6,7>, <52,6,5>, <53,6,3>, <54,6,3>, <55,6,4>, <56,6,2>, <57,6,10>, <58,6,1>, <59,6,10>, <60,6,9>, <61,6,3>, <62,6,2>, <63,6,1>, <64,6,8>, <65,6,4>, <66,6,2>, <67,6,1>, <68,6,4>, <69,6,6>, <70,6,4>, <71,6,1>, <72,6,8>, <74,6,5>, <75,6,1>, <76,6,2>, <77,6,15>, <78,6,6>, <81,6,4>, <82,6,2>, <83,6,11>, <84,6,7>, <85,6,8>, <87,6,3>, <88,6,1>, <89,6,6>, <90,6,5>, <91,6,6>, <92,6,4>, <93,6,2>, <94,6,2>, <96,6,1>, <97,6,1>, <98,6,3>, <99,6,1>, <100,6,1>, <1,7,670>, <2,7,104>, <3,7,120>, <4,7,102>, <5,7,112>, <6,7,21>, <7,7,76>, <8,7,40>, <10,7,26>, <11,7,10>, <12,7,17>, <13,7,73>, <14,7,6>, <15,7,4>, <16,7,54>, <17,7,16>, <18,7,32>, <19,7,36>, <20,7,28>, <21,7,12>, <22,7,11>, <23,7,32>, <25,7,2>, <26,7,9>, <27,7,3>, <28,7,13>, <29,7,6>, <30,7,5>, <31,7,7>, <32,7,8>, <33,7,3>, <34,7,1>, <35,7,4>, <36,7,5>, <38,7,8>, <39,7,9>, <41,7,12>, <42,7,10>, <44,7,11>, <45,7,2>, <46,7,12>, <47,7,7>, <48,7,11>, <49,7,9>, <50,7,6>, <51,7,1>, <52,7,3>, <53,7,19>, <54,7,5>, <55,7,7>, <56,7,9>, <57,7,2>, <58,7,1>, <59,7,5>, <62,7,10>, <63,7,2>, <64,7,1>, <65,7,5>, <66,7,7>, <67,7,12>, <68,7,1>, <69,7,4>, <70,7,9>, <71,7,4>, <72,7,4>, <73,7,6>, <74,7,3>, <75,7,4>, <76,7,3>, <77,7,4>, <78,7,7>, <79,7,6>, <80,7,10>, <81,7,6>, <82,7,2>, <83,7,2>, <85,7,4>, <86,7,6>, <87,7,3>, <88,7,10>, <89,7,1>, <90,7,4>, <91,7,1>, <92,7,4>, <93,7,5>, <94,7,1>, <95,7,1>, <96,7,1>, <97,7,3>, <98,7,6>, <99,7,1>, <100,7,4>, <1,1,720>, <2,1,367>, <3,1,90>, <4,1,155>, <5,1,17>, <6,1,8>, <7,1,1>, <8,1,92>, <9,1,42>, <10,1,38>, <11,1,38>, <12,1,15>, <13,1,17>, <14,1,15>, <15,1,6>, <16,1,4>, <18,1,10>, <19,1,7>, <20,1,3>, <21,1,31>, <22,1,22>, <23,1,2>, <24,1,23>, <25,1,9>, <26,1,12>, <27,1,27>, <28,1,10>, <29,1,14>, <30,1,11>, <31,1,3>, <32,1,2>, <33,1,31>, <34,1,3>, <35,1,3>, <36,1,1>, <37,1,1>, <38,1,5>, <39,1,10>, <40,1,13>, <41,1,4>, <42,1,2>, <43,1,16>, <44,1,12>, <45,1,2>, <46,1,15>, <48,1,3>, <49,1,2>, <50,1,1>, <51,1,10>, <52,1,7>, <53,1,1>, <54,1,3>, <55,1,6>, <56,1,9>, <57,1,1>, <58,1,22>, <59,1,7>, <60,1,2>, <61,1,16>, <62,1,2>, <63,1,2>, <64,1,3>, <65,1,17>, <67,1,2>, <69,1,1>, <70,1,2>, <71,1,10>, <72,1,1>, <73,1,3>, <74,1,3>, <75,1,5>, <76,1,4>, <77,1,1>, <78,1,13>, <79,1,3>, <80,1,9>, <81,1,1>, <82,1,3>, <83,1,2>, <84,1,4>, <85,1,8>, <86,1,5>, <87,1,2>, <88,1,6>, <89,1,5>, <91,1,2>, <92,1,2>, <93,1,5>, <94,1,3>, <95,1,2>, <96,1,12>, <97,1,4>, <98,1,2>, <99,1,9>, <100,1,3>, <1,10,114>, <2,10,261>, <3,10,74>, <4,10,39>, <5,10,17>, <6,10,16>, <7,10,26>, <8,10,49>, <9,10,91>, <10,10,23>, <11,10,9>, <12,10,1>, <13,10,4>, <14,10,83>, <15,10,31>, <16,10,6>, <17,10,60>, <18,10,27>, <19,10,13>, <20,10,8>, <21,10,7>, <22,10,20>, <23,10,10>, <24,10,12>, <25,10,4>, <26,10,30>, <27,10,14>, <28,10,12>, <29,10,24>, <30,10,13>, <31,10,11>, <33,10,15>, <34,10,22>, <35,10,3>, <36,10,11>, <37,10,4>, <38,10,6>, <39,10,2>, <40,10,5>, <42,10,4>, <43,10,5>, <44,10,3>, <45,10,8>, <46,10,1>, <47,10,10>, <48,10,3>, <49,10,11>, <50,10,11>, <51,10,3>, <52,10,6>, <53,10,3>, <54,10,12>, <55,10,9>, <56,10,5>, <57,10,3>, <58,10,3>, <59,10,2>, <60,10,4>, <61,10,8>, <62,10,4>, <63,10,20>, <64,10,1>, <66,10,5>, <67,10,2>, <68,10,9>, <69,10,1>, <71,10,1>, <72,10,3>, <74,10,1>, <75,10,7>, <76,10,2>, <77,10,3>, <79,10,1>, <80,10,1>, <81,10,6>, <82,10,3>, <83,10,1>, <84,10,2>, <86,10,5>, <87,10,9>, <88,10,2>, <89,10,5>, <90,10,1>, <91,10,3>, <92,10,4>, <93,10,3>, <94,10,4>, <95,10,5>, <96,10,6>, <97,10,8>, <98,10,1>, <99,10,1>, <100,10,3> };

MaxCacheStorageAtSingleAS= [ 131.25  131.25  131.25  131.25  131.25  131.25  131.25  131.25  131.25  131.25  131.25 ] ;

MaxCacheStorage = 1443.75 ;
SolutionGap = 0.01 ;
